(set-info :smt-lib-version 2.6)
(set-logic QF_NIA)
(set-info :source |
Generated by: Cristina Borralleras, Daniel Larraz, Albert Oliveras, Enric Rodriguez-Carbonell, Albert Rubio
Generated on: 2017-04-27
Generator: VeryMax
Application: Termination proving
Target solver: barcelogic
|)
(set-info :license "https://creativecommons.org/licenses/by/4.0/")
(set-info :category "industrial")
(set-info :status unknown)
(declare-fun Nl3arg11 () Int)
(declare-fun Nl3arg21 () Int)
(declare-fun Nl3arg31 () Int)
(declare-fun Nl3arg41 () Int)
(declare-fun Nl3arg51 () Int)
(declare-fun Nl3arg12 () Int)
(declare-fun Nl3arg22 () Int)
(declare-fun Nl3arg32 () Int)
(declare-fun Nl3arg42 () Int)
(declare-fun Nl3arg52 () Int)
(declare-fun lam0n0 () Int)
(declare-fun lam0n1 () Int)
(declare-fun lam0n2 () Int)
(declare-fun lam0n3 () Int)
(declare-fun lam0n5 () Int)
(declare-fun lam0n6 () Int)
(declare-fun Nl3CT1 () Int)
(declare-fun Nl3CT2 () Int)
(declare-fun lam0n4 () Int)
(declare-fun lam1n0 () Int)
(declare-fun lam1n1 () Int)
(declare-fun lam1n2 () Int)
(declare-fun lam1n3 () Int)
(declare-fun lam1n5 () Int)
(declare-fun lam1n6 () Int)
(declare-fun lam1n4 () Int)
(declare-fun lam2n0 () Int)
(declare-fun lam2n1 () Int)
(declare-fun lam2n2 () Int)
(declare-fun lam2n3 () Int)
(declare-fun lam2n5 () Int)
(declare-fun lam2n6 () Int)
(declare-fun lam2n4 () Int)
(declare-fun lam3n0 () Int)
(declare-fun lam3n1 () Int)
(declare-fun lam3n3 () Int)
(declare-fun lam3n4 () Int)
(declare-fun lam3n2 () Int)
(declare-fun lam4n0 () Int)
(declare-fun lam4n1 () Int)
(declare-fun lam4n3 () Int)
(declare-fun lam4n4 () Int)
(declare-fun lam4n2 () Int)
(declare-fun lam5n0 () Int)
(declare-fun lam5n1 () Int)
(declare-fun lam5n3 () Int)
(declare-fun lam5n4 () Int)
(declare-fun lam5n2 () Int)
(declare-fun lam6n0 () Int)
(declare-fun lam6n1 () Int)
(declare-fun lam6n2 () Int)
(declare-fun lam6n3 () Int)
(declare-fun lam6n4 () Int)
(declare-fun lam6n6 () Int)
(declare-fun lam6n7 () Int)
(declare-fun lam6n5 () Int)
(declare-fun lam7n0 () Int)
(declare-fun lam7n1 () Int)
(declare-fun lam7n2 () Int)
(declare-fun lam7n3 () Int)
(declare-fun lam7n4 () Int)
(declare-fun lam7n6 () Int)
(declare-fun lam7n7 () Int)
(declare-fun lam7n5 () Int)
(declare-fun lam8n0 () Int)
(declare-fun lam8n1 () Int)
(declare-fun lam8n2 () Int)
(declare-fun lam8n3 () Int)
(declare-fun lam8n4 () Int)
(declare-fun lam8n6 () Int)
(declare-fun lam8n7 () Int)
(declare-fun lam8n5 () Int)
(declare-fun lam9n0 () Int)
(declare-fun lam9n1 () Int)
(declare-fun lam9n3 () Int)
(declare-fun lam9n4 () Int)
(declare-fun lam9n2 () Int)
(declare-fun lam10n0 () Int)
(declare-fun lam10n1 () Int)
(declare-fun lam10n3 () Int)
(declare-fun lam10n4 () Int)
(declare-fun lam10n2 () Int)
(declare-fun lam11n0 () Int)
(declare-fun lam11n1 () Int)
(declare-fun lam11n3 () Int)
(declare-fun lam11n4 () Int)
(declare-fun lam11n2 () Int)
(declare-fun lam12n0 () Int)
(declare-fun lam12n1 () Int)
(declare-fun lam12n2 () Int)
(declare-fun lam12n3 () Int)
(declare-fun lam13n0 () Int)
(declare-fun lam13n1 () Int)
(declare-fun lam13n2 () Int)
(declare-fun lam13n3 () Int)
(declare-fun lam14n0 () Int)
(declare-fun lam14n1 () Int)
(declare-fun lam15n0 () Int)
(declare-fun lam15n1 () Int)
(declare-fun arg1 () Int)
(declare-fun arg4 () Int)
(declare-fun undef12 () Int)
(declare-fun arg2 () Int)
(declare-fun arg3 () Int)
(declare-fun undef13 () Int)
(declare-fun undef14 () Int)
(declare-fun undef15 () Int)
(declare-fun undef18 () Int)
(declare-fun undef19 () Int)
(declare-fun undef20 () Int)
(declare-fun lam19n0 () Int)
(declare-fun lam19n1 () Int)
(declare-fun lam19n2 () Int)
(declare-fun lam19n3 () Int)
(declare-fun lam19n5 () Int)
(declare-fun lam19n6 () Int)
(declare-fun RFN1_CT () Int)
(declare-fun RFN1_arg1 () Int)
(declare-fun RFN1_arg2 () Int)
(declare-fun RFN1_arg3 () Int)
(declare-fun RFN1_arg4 () Int)
(declare-fun RFN1_arg5 () Int)
(declare-fun lam19n4 () Int)
(declare-fun lam23n0 () Int)
(declare-fun lam23n1 () Int)
(declare-fun lam23n3 () Int)
(declare-fun lam23n4 () Int)
(declare-fun lam23n2 () Int)
(declare-fun lam27n0 () Int)
(declare-fun lam27n1 () Int)
(declare-fun lam27n2 () Int)
(declare-fun lam27n3 () Int)
(declare-fun lam27n4 () Int)
(declare-fun lam27n6 () Int)
(declare-fun lam27n7 () Int)
(declare-fun lam27n5 () Int)
(declare-fun lam31n0 () Int)
(declare-fun lam31n1 () Int)
(declare-fun lam31n3 () Int)
(declare-fun lam31n4 () Int)
(declare-fun lam31n2 () Int)
(declare-fun lam17n0 () Int)
(declare-fun lam17n1 () Int)
(declare-fun lam17n2 () Int)
(declare-fun lam17n3 () Int)
(declare-fun lam17n5 () Int)
(declare-fun lam17n6 () Int)
(declare-fun lam17n4 () Int)
(declare-fun lam18n0 () Int)
(declare-fun lam18n1 () Int)
(declare-fun lam18n2 () Int)
(declare-fun lam18n3 () Int)
(declare-fun lam18n5 () Int)
(declare-fun lam18n6 () Int)
(declare-fun lam18n4 () Int)
(declare-fun lam21n0 () Int)
(declare-fun lam21n1 () Int)
(declare-fun lam21n3 () Int)
(declare-fun lam21n4 () Int)
(declare-fun lam21n2 () Int)
(declare-fun lam22n0 () Int)
(declare-fun lam22n1 () Int)
(declare-fun lam22n3 () Int)
(declare-fun lam22n4 () Int)
(declare-fun lam22n2 () Int)
(declare-fun lam25n0 () Int)
(declare-fun lam25n1 () Int)
(declare-fun lam25n2 () Int)
(declare-fun lam25n3 () Int)
(declare-fun lam25n4 () Int)
(declare-fun lam25n6 () Int)
(declare-fun lam25n7 () Int)
(declare-fun lam25n5 () Int)
(declare-fun lam26n0 () Int)
(declare-fun lam26n1 () Int)
(declare-fun lam26n2 () Int)
(declare-fun lam26n3 () Int)
(declare-fun lam26n4 () Int)
(declare-fun lam26n6 () Int)
(declare-fun lam26n7 () Int)
(declare-fun lam26n5 () Int)
(declare-fun lam29n0 () Int)
(declare-fun lam29n1 () Int)
(declare-fun lam29n3 () Int)
(declare-fun lam29n4 () Int)
(declare-fun lam29n2 () Int)
(declare-fun lam30n0 () Int)
(declare-fun lam30n1 () Int)
(declare-fun lam30n3 () Int)
(declare-fun lam30n4 () Int)
(declare-fun lam30n2 () Int)
(declare-fun lam16n0 () Int)
(declare-fun lam16n1 () Int)
(declare-fun lam16n2 () Int)
(declare-fun lam16n3 () Int)
(declare-fun lam16n5 () Int)
(declare-fun lam16n6 () Int)
(declare-fun lam16n4 () Int)
(declare-fun lam20n0 () Int)
(declare-fun lam20n1 () Int)
(declare-fun lam20n3 () Int)
(declare-fun lam20n4 () Int)
(declare-fun lam20n2 () Int)
(declare-fun lam24n0 () Int)
(declare-fun lam24n1 () Int)
(declare-fun lam24n2 () Int)
(declare-fun lam24n3 () Int)
(declare-fun lam24n4 () Int)
(declare-fun lam24n6 () Int)
(declare-fun lam24n7 () Int)
(declare-fun lam24n5 () Int)
(declare-fun lam28n0 () Int)
(declare-fun lam28n1 () Int)
(declare-fun lam28n3 () Int)
(declare-fun lam28n4 () Int)
(declare-fun lam28n2 () Int)
(assert ( and ( <= ( - 2 ) Nl3arg11 ) ( <= Nl3arg11 2 ) ( <= ( - 2 ) Nl3arg21 ) ( <= Nl3arg21 2 ) ( <= ( - 2 ) Nl3arg31 ) ( <= Nl3arg31 2 ) ( <= ( - 2 ) Nl3arg41 ) ( <= Nl3arg41 2 ) ( <= ( - 2 ) Nl3arg51 ) ( <= Nl3arg51 2 ) ( <= ( - 2 ) Nl3arg12 ) ( <= Nl3arg12 2 ) ( <= ( - 2 ) Nl3arg22 ) ( <= Nl3arg22 2 ) ( <= ( - 2 ) Nl3arg32 ) ( <= Nl3arg32 2 ) ( <= ( - 2 ) Nl3arg42 ) ( <= Nl3arg42 2 ) ( <= ( - 2 ) Nl3arg52 ) ( <= Nl3arg52 2 ) ))
(assert ( or ( and ( >= lam0n0 0 ) ( >= lam0n1 0 ) ( >= lam0n2 0 ) ( >= lam0n3 0 ) ( >= lam0n5 0 ) ( >= lam0n6 0 ) ( > ( + ( * 1 lam0n0 ) ( * 1 lam0n1 ) ( * 1 lam0n2 ) ( * Nl3CT1 lam0n5 ) ( * Nl3CT2 lam0n6 ) ( - 1 ) ) 0 ) ( = ( + ( * 1 lam0n4 ) ( * Nl3arg11 lam0n5 ) ( * Nl3arg12 lam0n6 ) ) 0 ) ( = ( + ( * ( - 1 ) lam0n0 ) ( * ( - 1 ) lam0n3 ) ( * Nl3arg21 lam0n5 ) ( * Nl3arg22 lam0n6 ) ) 0 ) ( = ( + ( * Nl3arg31 lam0n5 ) ( * Nl3arg32 lam0n6 ) ) 0 ) ( = ( + ( * Nl3arg41 lam0n5 ) ( * Nl3arg42 lam0n6 ) ) 0 ) ( = ( + ( * Nl3arg51 lam0n5 ) ( * Nl3arg52 lam0n6 ) ) 0 ) ( = ( * ( - 1 ) lam0n1 ) 0 ) ( = ( + ( * 1 lam0n0 ) ( * 1 lam0n1 ) ( * ( - 1 ) lam0n2 ) ) 0 ) ) ( and ( >= lam1n0 0 ) ( >= lam1n1 0 ) ( >= lam1n2 0 ) ( >= lam1n3 0 ) ( >= lam1n5 0 ) ( >= lam1n6 0 ) ( > ( + ( * 1 lam1n0 ) ( * 1 lam1n1 ) ( * 1 lam1n2 ) ( * Nl3CT1 lam1n5 ) ( * Nl3CT2 lam1n6 ) ( - 1 ( + ( + ( + ( + ( + Nl3CT1 ( * Nl3arg11 1 ) ) ( * Nl3arg21 0 ) ) ( * Nl3arg31 0 ) ) ( * Nl3arg41 0 ) ) ( * Nl3arg51 0 ) ) ) ) 0 ) ( = ( + ( * 1 lam1n4 ) ( * Nl3arg11 lam1n5 ) ( * Nl3arg12 lam1n6 ) ) 0 ) ( = ( + ( * ( - 1 ) lam1n0 ) ( * ( - 1 ) lam1n3 ) ( * Nl3arg21 lam1n5 ) ( * Nl3arg22 lam1n6 ) ) 0 ) ( = ( + ( * Nl3arg31 lam1n5 ) ( * Nl3arg32 lam1n6 ) ) 0 ) ( = ( + ( * Nl3arg41 lam1n5 ) ( * Nl3arg42 lam1n6 ) ) 0 ) ( = ( + ( * Nl3arg51 lam1n5 ) ( * Nl3arg52 lam1n6 ) ) 0 ) ( = ( + ( * ( - 1 ) lam1n1 ) ( - ( + 0 ( * Nl3arg21 1 ) ) ) ) 0 ) ( = ( - ( + 0 ( * Nl3arg31 1 ) ) ) 0 ) ( = ( - ( + 0 ( * Nl3arg41 1 ) ) ) 0 ) ( = ( - ( + 0 ( * Nl3arg51 1 ) ) ) 0 ) ( = ( + ( * 1 lam1n0 ) ( * 1 lam1n1 ) ( * ( - 1 ) lam1n2 ) ) 0 ) ) ))
(assert ( or ( and ( >= lam0n0 0 ) ( >= lam0n1 0 ) ( >= lam0n2 0 ) ( >= lam0n3 0 ) ( >= lam0n5 0 ) ( >= lam0n6 0 ) ( > ( + ( * 1 lam0n0 ) ( * 1 lam0n1 ) ( * 1 lam0n2 ) ( * Nl3CT1 lam0n5 ) ( * Nl3CT2 lam0n6 ) ( - 1 ) ) 0 ) ( = ( + ( * 1 lam0n4 ) ( * Nl3arg11 lam0n5 ) ( * Nl3arg12 lam0n6 ) ) 0 ) ( = ( + ( * ( - 1 ) lam0n0 ) ( * ( - 1 ) lam0n3 ) ( * Nl3arg21 lam0n5 ) ( * Nl3arg22 lam0n6 ) ) 0 ) ( = ( + ( * Nl3arg31 lam0n5 ) ( * Nl3arg32 lam0n6 ) ) 0 ) ( = ( + ( * Nl3arg41 lam0n5 ) ( * Nl3arg42 lam0n6 ) ) 0 ) ( = ( + ( * Nl3arg51 lam0n5 ) ( * Nl3arg52 lam0n6 ) ) 0 ) ( = ( * ( - 1 ) lam0n1 ) 0 ) ( = ( + ( * 1 lam0n0 ) ( * 1 lam0n1 ) ( * ( - 1 ) lam0n2 ) ) 0 ) ) ( and ( >= lam2n0 0 ) ( >= lam2n1 0 ) ( >= lam2n2 0 ) ( >= lam2n3 0 ) ( >= lam2n5 0 ) ( >= lam2n6 0 ) ( > ( + ( * 1 lam2n0 ) ( * 1 lam2n1 ) ( * 1 lam2n2 ) ( * Nl3CT1 lam2n5 ) ( * Nl3CT2 lam2n6 ) ( - 1 ( + ( + ( + ( + ( + Nl3CT2 ( * Nl3arg12 1 ) ) ( * Nl3arg22 0 ) ) ( * Nl3arg32 0 ) ) ( * Nl3arg42 0 ) ) ( * Nl3arg52 0 ) ) ) ) 0 ) ( = ( + ( * 1 lam2n4 ) ( * Nl3arg11 lam2n5 ) ( * Nl3arg12 lam2n6 ) ) 0 ) ( = ( + ( * ( - 1 ) lam2n0 ) ( * ( - 1 ) lam2n3 ) ( * Nl3arg21 lam2n5 ) ( * Nl3arg22 lam2n6 ) ) 0 ) ( = ( + ( * Nl3arg31 lam2n5 ) ( * Nl3arg32 lam2n6 ) ) 0 ) ( = ( + ( * Nl3arg41 lam2n5 ) ( * Nl3arg42 lam2n6 ) ) 0 ) ( = ( + ( * Nl3arg51 lam2n5 ) ( * Nl3arg52 lam2n6 ) ) 0 ) ( = ( + ( * ( - 1 ) lam2n1 ) ( - ( + 0 ( * Nl3arg22 1 ) ) ) ) 0 ) ( = ( - ( + 0 ( * Nl3arg32 1 ) ) ) 0 ) ( = ( - ( + 0 ( * Nl3arg42 1 ) ) ) 0 ) ( = ( - ( + 0 ( * Nl3arg52 1 ) ) ) 0 ) ( = ( + ( * 1 lam2n0 ) ( * 1 lam2n1 ) ( * ( - 1 ) lam2n2 ) ) 0 ) ) ))
(assert ( or ( and ( >= lam3n0 0 ) ( >= lam3n1 0 ) ( >= lam3n3 0 ) ( >= lam3n4 0 ) ( > ( + ( * 1 lam3n0 ) ( * Nl3CT1 lam3n3 ) ( * Nl3CT2 lam3n4 ) ( - 1 ) ) 0 ) ( = ( + ( * 1 lam3n2 ) ( * Nl3arg11 lam3n3 ) ( * Nl3arg12 lam3n4 ) ) 0 ) ( = ( + ( * ( - 1 ) lam3n0 ) ( * ( - 1 ) lam3n1 ) ( * Nl3arg21 lam3n3 ) ( * Nl3arg22 lam3n4 ) ) 0 ) ( = ( + ( * Nl3arg31 lam3n3 ) ( * Nl3arg32 lam3n4 ) ) 0 ) ( = ( + ( * Nl3arg41 lam3n3 ) ( * Nl3arg42 lam3n4 ) ) 0 ) ( = ( + ( * Nl3arg51 lam3n3 ) ( * Nl3arg52 lam3n4 ) ) 0 ) ( = ( * 1 lam3n0 ) 0 ) ) ( and ( >= lam4n0 0 ) ( >= lam4n1 0 ) ( >= lam4n3 0 ) ( >= lam4n4 0 ) ( > ( + ( * 1 lam4n0 ) ( * Nl3CT1 lam4n3 ) ( * Nl3CT2 lam4n4 ) ( - 1 ( + ( + ( + ( + ( + Nl3CT1 ( * Nl3arg11 1 ) ) ( * Nl3arg21 1 ) ) ( * Nl3arg31 0 ) ) ( * Nl3arg41 0 ) ) ( * Nl3arg51 0 ) ) ) ) 0 ) ( = ( + ( * 1 lam4n2 ) ( * Nl3arg11 lam4n3 ) ( * Nl3arg12 lam4n4 ) ) 0 ) ( = ( + ( * ( - 1 ) lam4n0 ) ( * ( - 1 ) lam4n1 ) ( * Nl3arg21 lam4n3 ) ( * Nl3arg22 lam4n4 ) ) 0 ) ( = ( + ( * Nl3arg31 lam4n3 ) ( * Nl3arg32 lam4n4 ) ) 0 ) ( = ( + ( * Nl3arg41 lam4n3 ) ( * Nl3arg42 lam4n4 ) ) 0 ) ( = ( + ( * Nl3arg51 lam4n3 ) ( * Nl3arg52 lam4n4 ) ) 0 ) ( = ( - ( + 0 ( * Nl3arg31 1 ) ) ) 0 ) ( = ( - ( + 0 ( * Nl3arg41 1 ) ) ) 0 ) ( = ( - ( + 0 ( * Nl3arg51 1 ) ) ) 0 ) ( = ( * 1 lam4n0 ) 0 ) ) ))
(assert ( or ( and ( >= lam3n0 0 ) ( >= lam3n1 0 ) ( >= lam3n3 0 ) ( >= lam3n4 0 ) ( > ( + ( * 1 lam3n0 ) ( * Nl3CT1 lam3n3 ) ( * Nl3CT2 lam3n4 ) ( - 1 ) ) 0 ) ( = ( + ( * 1 lam3n2 ) ( * Nl3arg11 lam3n3 ) ( * Nl3arg12 lam3n4 ) ) 0 ) ( = ( + ( * ( - 1 ) lam3n0 ) ( * ( - 1 ) lam3n1 ) ( * Nl3arg21 lam3n3 ) ( * Nl3arg22 lam3n4 ) ) 0 ) ( = ( + ( * Nl3arg31 lam3n3 ) ( * Nl3arg32 lam3n4 ) ) 0 ) ( = ( + ( * Nl3arg41 lam3n3 ) ( * Nl3arg42 lam3n4 ) ) 0 ) ( = ( + ( * Nl3arg51 lam3n3 ) ( * Nl3arg52 lam3n4 ) ) 0 ) ( = ( * 1 lam3n0 ) 0 ) ) ( and ( >= lam5n0 0 ) ( >= lam5n1 0 ) ( >= lam5n3 0 ) ( >= lam5n4 0 ) ( > ( + ( * 1 lam5n0 ) ( * Nl3CT1 lam5n3 ) ( * Nl3CT2 lam5n4 ) ( - 1 ( + ( + ( + ( + ( + Nl3CT2 ( * Nl3arg12 1 ) ) ( * Nl3arg22 1 ) ) ( * Nl3arg32 0 ) ) ( * Nl3arg42 0 ) ) ( * Nl3arg52 0 ) ) ) ) 0 ) ( = ( + ( * 1 lam5n2 ) ( * Nl3arg11 lam5n3 ) ( * Nl3arg12 lam5n4 ) ) 0 ) ( = ( + ( * ( - 1 ) lam5n0 ) ( * ( - 1 ) lam5n1 ) ( * Nl3arg21 lam5n3 ) ( * Nl3arg22 lam5n4 ) ) 0 ) ( = ( + ( * Nl3arg31 lam5n3 ) ( * Nl3arg32 lam5n4 ) ) 0 ) ( = ( + ( * Nl3arg41 lam5n3 ) ( * Nl3arg42 lam5n4 ) ) 0 ) ( = ( + ( * Nl3arg51 lam5n3 ) ( * Nl3arg52 lam5n4 ) ) 0 ) ( = ( - ( + 0 ( * Nl3arg32 1 ) ) ) 0 ) ( = ( - ( + 0 ( * Nl3arg42 1 ) ) ) 0 ) ( = ( - ( + 0 ( * Nl3arg52 1 ) ) ) 0 ) ( = ( * 1 lam5n0 ) 0 ) ) ))
(assert ( or ( and ( >= lam6n0 0 ) ( >= lam6n1 0 ) ( >= lam6n2 0 ) ( >= lam6n3 0 ) ( >= lam6n4 0 ) ( >= lam6n6 0 ) ( >= lam6n7 0 ) ( > ( + ( * 1 lam6n0 ) ( * 1 lam6n1 ) ( * 1 lam6n2 ) ( * 1 lam6n3 ) ( * ( - 1 ) lam6n5 ) ( * Nl3CT1 lam6n6 ) ( * Nl3CT2 lam6n7 ) ( - 1 ) ) 0 ) ( = ( + ( * 1 lam6n5 ) ( * Nl3arg11 lam6n6 ) ( * Nl3arg12 lam6n7 ) ) 0 ) ( = ( + ( * ( - 1 ) lam6n0 ) ( * ( - 1 ) lam6n4 ) ( * Nl3arg21 lam6n6 ) ( * Nl3arg22 lam6n7 ) ) 0 ) ( = ( + ( * Nl3arg31 lam6n6 ) ( * Nl3arg32 lam6n7 ) ) 0 ) ( = ( + ( * Nl3arg41 lam6n6 ) ( * Nl3arg42 lam6n7 ) ) 0 ) ( = ( + ( * Nl3arg51 lam6n6 ) ( * Nl3arg52 lam6n7 ) ) 0 ) ( = ( + ( * 1 lam6n0 ) ( * 1 lam6n1 ) ( * 1 lam6n2 ) ( * ( - 1 ) lam6n3 ) ) 0 ) ( = ( * ( - 1 ) lam6n1 ) 0 ) ( = ( * ( - 1 ) lam6n2 ) 0 ) ) ( and ( >= lam7n0 0 ) ( >= lam7n1 0 ) ( >= lam7n2 0 ) ( >= lam7n3 0 ) ( >= lam7n4 0 ) ( >= lam7n6 0 ) ( >= lam7n7 0 ) ( > ( + ( * 1 lam7n0 ) ( * 1 lam7n1 ) ( * 1 lam7n2 ) ( * 1 lam7n3 ) ( * ( - 1 ) lam7n5 ) ( * Nl3CT1 lam7n6 ) ( * Nl3CT2 lam7n7 ) ( - 1 ( + ( + ( + ( + ( + Nl3CT1 ( * Nl3arg11 0 ) ) ( * Nl3arg21 0 ) ) ( * Nl3arg31 0 ) ) ( * Nl3arg41 0 ) ) ( * Nl3arg51 0 ) ) ) ) 0 ) ( = ( + ( * 1 lam7n5 ) ( * Nl3arg11 lam7n6 ) ( * Nl3arg12 lam7n7 ) ) 0 ) ( = ( + ( * ( - 1 ) lam7n0 ) ( * ( - 1 ) lam7n4 ) ( * Nl3arg21 lam7n6 ) ( * Nl3arg22 lam7n7 ) ) 0 ) ( = ( + ( * Nl3arg31 lam7n6 ) ( * Nl3arg32 lam7n7 ) ) 0 ) ( = ( + ( * Nl3arg41 lam7n6 ) ( * Nl3arg42 lam7n7 ) ) 0 ) ( = ( + ( * Nl3arg51 lam7n6 ) ( * Nl3arg52 lam7n7 ) ) 0 ) ( = ( - ( + 0 ( * Nl3arg31 1 ) ) ) 0 ) ( = ( - ( + 0 ( * Nl3arg41 1 ) ) ) 0 ) ( = ( - ( + 0 ( * Nl3arg51 1 ) ) ) 0 ) ( = ( + ( * 1 lam7n0 ) ( * 1 lam7n1 ) ( * 1 lam7n2 ) ( * ( - 1 ) lam7n3 ) ) 0 ) ( = ( * ( - 1 ) lam7n1 ) 0 ) ( = ( * ( - 1 ) lam7n2 ) 0 ) ) ))
(assert ( or ( and ( >= lam6n0 0 ) ( >= lam6n1 0 ) ( >= lam6n2 0 ) ( >= lam6n3 0 ) ( >= lam6n4 0 ) ( >= lam6n6 0 ) ( >= lam6n7 0 ) ( > ( + ( * 1 lam6n0 ) ( * 1 lam6n1 ) ( * 1 lam6n2 ) ( * 1 lam6n3 ) ( * ( - 1 ) lam6n5 ) ( * Nl3CT1 lam6n6 ) ( * Nl3CT2 lam6n7 ) ( - 1 ) ) 0 ) ( = ( + ( * 1 lam6n5 ) ( * Nl3arg11 lam6n6 ) ( * Nl3arg12 lam6n7 ) ) 0 ) ( = ( + ( * ( - 1 ) lam6n0 ) ( * ( - 1 ) lam6n4 ) ( * Nl3arg21 lam6n6 ) ( * Nl3arg22 lam6n7 ) ) 0 ) ( = ( + ( * Nl3arg31 lam6n6 ) ( * Nl3arg32 lam6n7 ) ) 0 ) ( = ( + ( * Nl3arg41 lam6n6 ) ( * Nl3arg42 lam6n7 ) ) 0 ) ( = ( + ( * Nl3arg51 lam6n6 ) ( * Nl3arg52 lam6n7 ) ) 0 ) ( = ( + ( * 1 lam6n0 ) ( * 1 lam6n1 ) ( * 1 lam6n2 ) ( * ( - 1 ) lam6n3 ) ) 0 ) ( = ( * ( - 1 ) lam6n1 ) 0 ) ( = ( * ( - 1 ) lam6n2 ) 0 ) ) ( and ( >= lam8n0 0 ) ( >= lam8n1 0 ) ( >= lam8n2 0 ) ( >= lam8n3 0 ) ( >= lam8n4 0 ) ( >= lam8n6 0 ) ( >= lam8n7 0 ) ( > ( + ( * 1 lam8n0 ) ( * 1 lam8n1 ) ( * 1 lam8n2 ) ( * 1 lam8n3 ) ( * ( - 1 ) lam8n5 ) ( * Nl3CT1 lam8n6 ) ( * Nl3CT2 lam8n7 ) ( - 1 ( + ( + ( + ( + ( + Nl3CT2 ( * Nl3arg12 0 ) ) ( * Nl3arg22 0 ) ) ( * Nl3arg32 0 ) ) ( * Nl3arg42 0 ) ) ( * Nl3arg52 0 ) ) ) ) 0 ) ( = ( + ( * 1 lam8n5 ) ( * Nl3arg11 lam8n6 ) ( * Nl3arg12 lam8n7 ) ) 0 ) ( = ( + ( * ( - 1 ) lam8n0 ) ( * ( - 1 ) lam8n4 ) ( * Nl3arg21 lam8n6 ) ( * Nl3arg22 lam8n7 ) ) 0 ) ( = ( + ( * Nl3arg31 lam8n6 ) ( * Nl3arg32 lam8n7 ) ) 0 ) ( = ( + ( * Nl3arg41 lam8n6 ) ( * Nl3arg42 lam8n7 ) ) 0 ) ( = ( + ( * Nl3arg51 lam8n6 ) ( * Nl3arg52 lam8n7 ) ) 0 ) ( = ( - ( + 0 ( * Nl3arg32 1 ) ) ) 0 ) ( = ( - ( + 0 ( * Nl3arg42 1 ) ) ) 0 ) ( = ( - ( + 0 ( * Nl3arg52 1 ) ) ) 0 ) ( = ( + ( * 1 lam8n0 ) ( * 1 lam8n1 ) ( * 1 lam8n2 ) ( * ( - 1 ) lam8n3 ) ) 0 ) ( = ( * ( - 1 ) lam8n1 ) 0 ) ( = ( * ( - 1 ) lam8n2 ) 0 ) ) ))
(assert ( or ( and ( >= lam9n0 0 ) ( >= lam9n1 0 ) ( >= lam9n3 0 ) ( >= lam9n4 0 ) ( > ( + ( * 1 lam9n0 ) ( * ( - 1 ) lam9n2 ) ( * Nl3CT1 lam9n3 ) ( * Nl3CT2 lam9n4 ) ( - 1 ) ) 0 ) ( = ( + ( * 1 lam9n2 ) ( * Nl3arg11 lam9n3 ) ( * Nl3arg12 lam9n4 ) ) 0 ) ( = ( + ( * ( - 1 ) lam9n0 ) ( * ( - 1 ) lam9n1 ) ( * Nl3arg21 lam9n3 ) ( * Nl3arg22 lam9n4 ) ) 0 ) ( = ( + ( * Nl3arg31 lam9n3 ) ( * Nl3arg32 lam9n4 ) ) 0 ) ( = ( + ( * Nl3arg41 lam9n3 ) ( * Nl3arg42 lam9n4 ) ) 0 ) ( = ( + ( * Nl3arg51 lam9n3 ) ( * Nl3arg52 lam9n4 ) ) 0 ) ( = ( * 1 lam9n0 ) 0 ) ) ( and ( >= lam10n0 0 ) ( >= lam10n1 0 ) ( >= lam10n3 0 ) ( >= lam10n4 0 ) ( > ( + ( * 1 lam10n0 ) ( * ( - 1 ) lam10n2 ) ( * Nl3CT1 lam10n3 ) ( * Nl3CT2 lam10n4 ) ( - 1 ( + ( + ( + ( + ( + Nl3CT1 ( * Nl3arg11 0 ) ) ( * Nl3arg21 2 ) ) ( * Nl3arg31 0 ) ) ( * Nl3arg41 0 ) ) ( * Nl3arg51 0 ) ) ) ) 0 ) ( = ( + ( * 1 lam10n2 ) ( * Nl3arg11 lam10n3 ) ( * Nl3arg12 lam10n4 ) ) 0 ) ( = ( + ( * ( - 1 ) lam10n0 ) ( * ( - 1 ) lam10n1 ) ( * Nl3arg21 lam10n3 ) ( * Nl3arg22 lam10n4 ) ) 0 ) ( = ( + ( * Nl3arg31 lam10n3 ) ( * Nl3arg32 lam10n4 ) ) 0 ) ( = ( + ( * Nl3arg41 lam10n3 ) ( * Nl3arg42 lam10n4 ) ) 0 ) ( = ( + ( * Nl3arg51 lam10n3 ) ( * Nl3arg52 lam10n4 ) ) 0 ) ( = ( - ( + 0 ( * Nl3arg31 1 ) ) ) 0 ) ( = ( - ( + 0 ( * Nl3arg41 1 ) ) ) 0 ) ( = ( - ( + 0 ( * Nl3arg51 1 ) ) ) 0 ) ( = ( * 1 lam10n0 ) 0 ) ) ))
(assert ( or ( and ( >= lam9n0 0 ) ( >= lam9n1 0 ) ( >= lam9n3 0 ) ( >= lam9n4 0 ) ( > ( + ( * 1 lam9n0 ) ( * ( - 1 ) lam9n2 ) ( * Nl3CT1 lam9n3 ) ( * Nl3CT2 lam9n4 ) ( - 1 ) ) 0 ) ( = ( + ( * 1 lam9n2 ) ( * Nl3arg11 lam9n3 ) ( * Nl3arg12 lam9n4 ) ) 0 ) ( = ( + ( * ( - 1 ) lam9n0 ) ( * ( - 1 ) lam9n1 ) ( * Nl3arg21 lam9n3 ) ( * Nl3arg22 lam9n4 ) ) 0 ) ( = ( + ( * Nl3arg31 lam9n3 ) ( * Nl3arg32 lam9n4 ) ) 0 ) ( = ( + ( * Nl3arg41 lam9n3 ) ( * Nl3arg42 lam9n4 ) ) 0 ) ( = ( + ( * Nl3arg51 lam9n3 ) ( * Nl3arg52 lam9n4 ) ) 0 ) ( = ( * 1 lam9n0 ) 0 ) ) ( and ( >= lam11n0 0 ) ( >= lam11n1 0 ) ( >= lam11n3 0 ) ( >= lam11n4 0 ) ( > ( + ( * 1 lam11n0 ) ( * ( - 1 ) lam11n2 ) ( * Nl3CT1 lam11n3 ) ( * Nl3CT2 lam11n4 ) ( - 1 ( + ( + ( + ( + ( + Nl3CT2 ( * Nl3arg12 0 ) ) ( * Nl3arg22 2 ) ) ( * Nl3arg32 0 ) ) ( * Nl3arg42 0 ) ) ( * Nl3arg52 0 ) ) ) ) 0 ) ( = ( + ( * 1 lam11n2 ) ( * Nl3arg11 lam11n3 ) ( * Nl3arg12 lam11n4 ) ) 0 ) ( = ( + ( * ( - 1 ) lam11n0 ) ( * ( - 1 ) lam11n1 ) ( * Nl3arg21 lam11n3 ) ( * Nl3arg22 lam11n4 ) ) 0 ) ( = ( + ( * Nl3arg31 lam11n3 ) ( * Nl3arg32 lam11n4 ) ) 0 ) ( = ( + ( * Nl3arg41 lam11n3 ) ( * Nl3arg42 lam11n4 ) ) 0 ) ( = ( + ( * Nl3arg51 lam11n3 ) ( * Nl3arg52 lam11n4 ) ) 0 ) ( = ( - ( + 0 ( * Nl3arg32 1 ) ) ) 0 ) ( = ( - ( + 0 ( * Nl3arg42 1 ) ) ) 0 ) ( = ( - ( + 0 ( * Nl3arg52 1 ) ) ) 0 ) ( = ( * 1 lam11n0 ) 0 ) ) ))
(assert ( or ( and ( <= ( + 1 ( * ( - 1 ) arg1 ) ) 0 ) ( <= ( + 1 arg4 ( * ( - 1 ) undef12 ) ) 0 ) ( <= ( + 1 ( * ( - 1 ) arg4 ) ) 0 ) ( <= ( + ( * ( - 1 ) arg2 ) arg3 ) 0 ) ( <= ( + ( + ( + ( + ( + ( + Nl3CT1 ( * Nl3arg11 1 ) ) ( * Nl3arg21 0 ) ) ( * Nl3arg31 0 ) ) ( * Nl3arg41 0 ) ) ( * Nl3arg51 0 ) ) ( * ( + 0 ( * Nl3arg21 1 ) ) undef12 ) ( * ( + 0 ( * Nl3arg31 1 ) ) undef13 ) ( * ( + 0 ( * Nl3arg41 1 ) ) undef14 ) ( * ( + 0 ( * Nl3arg51 1 ) ) undef15 ) ) 0 ) ( <= ( + ( + ( + ( + ( + ( + Nl3CT2 ( * Nl3arg12 1 ) ) ( * Nl3arg22 0 ) ) ( * Nl3arg32 0 ) ) ( * Nl3arg42 0 ) ) ( * Nl3arg52 0 ) ) ( * ( + 0 ( * Nl3arg22 1 ) ) undef12 ) ( * ( + 0 ( * Nl3arg32 1 ) ) undef13 ) ( * ( + 0 ( * Nl3arg42 1 ) ) undef14 ) ( * ( + 0 ( * Nl3arg52 1 ) ) undef15 ) ) 0 ) ) ( and ( <= ( + 1 ( * ( - 1 ) arg1 ) ) 0 ) ( <= ( + ( * ( - 1 ) arg2 ) arg3 ) 0 ) ( <= ( + ( + ( + ( + ( + ( + Nl3CT1 ( * Nl3arg11 1 ) ) ( * Nl3arg21 1 ) ) ( * Nl3arg31 0 ) ) ( * Nl3arg41 0 ) ) ( * Nl3arg51 0 ) ) ( * ( + 0 ( * Nl3arg31 1 ) ) undef18 ) ( * ( + 0 ( * Nl3arg41 1 ) ) undef19 ) ( * ( + 0 ( * Nl3arg51 1 ) ) undef20 ) ) 0 ) ( <= ( + ( + ( + ( + ( + ( + Nl3CT2 ( * Nl3arg12 1 ) ) ( * Nl3arg22 1 ) ) ( * Nl3arg32 0 ) ) ( * Nl3arg42 0 ) ) ( * Nl3arg52 0 ) ) ( * ( + 0 ( * Nl3arg32 1 ) ) undef18 ) ( * ( + 0 ( * Nl3arg42 1 ) ) undef19 ) ( * ( + 0 ( * Nl3arg52 1 ) ) undef20 ) ) 0 ) ) ))
(assert ( or ( and ( and ( and ( >= lam19n0 0 ) ( >= lam19n1 0 ) ( >= lam19n2 0 ) ( >= lam19n3 0 ) ( >= lam19n5 0 ) ( >= lam19n6 0 ) ( > ( + ( * 1 lam19n0 ) ( * 1 lam19n1 ) ( * 1 lam19n2 ) ( * Nl3CT1 lam19n5 ) ( * Nl3CT2 lam19n6 ) ( - 1 ( - ( + ( + ( + ( + ( + RFN1_CT ( * RFN1_arg1 1 ) ) ( * RFN1_arg2 0 ) ) ( * RFN1_arg3 0 ) ) ( * RFN1_arg4 0 ) ) ( * RFN1_arg5 0 ) ) RFN1_CT ) ) ) 0 ) ( = ( + ( * 1 lam19n4 ) ( * Nl3arg11 lam19n5 ) ( * Nl3arg12 lam19n6 ) ( - ( - RFN1_arg1 ) ) ) 0 ) ( = ( + ( * ( - 1 ) lam19n0 ) ( * ( - 1 ) lam19n3 ) ( * Nl3arg21 lam19n5 ) ( * Nl3arg22 lam19n6 ) ( - ( - RFN1_arg2 ) ) ) 0 ) ( = ( + ( * Nl3arg31 lam19n5 ) ( * Nl3arg32 lam19n6 ) ( - ( - RFN1_arg3 ) ) ) 0 ) ( = ( + ( * Nl3arg41 lam19n5 ) ( * Nl3arg42 lam19n6 ) ( - ( - RFN1_arg4 ) ) ) 0 ) ( = ( + ( * Nl3arg51 lam19n5 ) ( * Nl3arg52 lam19n6 ) ( - ( - RFN1_arg5 ) ) ) 0 ) ( = ( + ( * ( - 1 ) lam19n1 ) ( - ( + 0 ( * RFN1_arg2 1 ) ) ) ) 0 ) ( = ( - ( + 0 ( * RFN1_arg3 1 ) ) ) 0 ) ( = ( - ( + 0 ( * RFN1_arg4 1 ) ) ) 0 ) ( = ( - ( + 0 ( * RFN1_arg5 1 ) ) ) 0 ) ( = ( + ( * 1 lam19n0 ) ( * 1 lam19n1 ) ( * ( - 1 ) lam19n2 ) ) 0 ) ) ( and ( >= lam23n0 0 ) ( >= lam23n1 0 ) ( >= lam23n3 0 ) ( >= lam23n4 0 ) ( > ( + ( * 1 lam23n0 ) ( * Nl3CT1 lam23n3 ) ( * Nl3CT2 lam23n4 ) ( - 1 ( - ( + ( + ( + ( + ( + RFN1_CT ( * RFN1_arg1 1 ) ) ( * RFN1_arg2 1 ) ) ( * RFN1_arg3 0 ) ) ( * RFN1_arg4 0 ) ) ( * RFN1_arg5 0 ) ) RFN1_CT ) ) ) 0 ) ( = ( + ( * 1 lam23n2 ) ( * Nl3arg11 lam23n3 ) ( * Nl3arg12 lam23n4 ) ( - ( - RFN1_arg1 ) ) ) 0 ) ( = ( + ( * ( - 1 ) lam23n0 ) ( * ( - 1 ) lam23n1 ) ( * Nl3arg21 lam23n3 ) ( * Nl3arg22 lam23n4 ) ( - ( - RFN1_arg2 ) ) ) 0 ) ( = ( + ( * Nl3arg31 lam23n3 ) ( * Nl3arg32 lam23n4 ) ( - ( - RFN1_arg3 ) ) ) 0 ) ( = ( + ( * Nl3arg41 lam23n3 ) ( * Nl3arg42 lam23n4 ) ( - ( - RFN1_arg4 ) ) ) 0 ) ( = ( + ( * Nl3arg51 lam23n3 ) ( * Nl3arg52 lam23n4 ) ( - ( - RFN1_arg5 ) ) ) 0 ) ( = ( - ( + 0 ( * RFN1_arg3 1 ) ) ) 0 ) ( = ( - ( + 0 ( * RFN1_arg4 1 ) ) ) 0 ) ( = ( - ( + 0 ( * RFN1_arg5 1 ) ) ) 0 ) ( = ( * 1 lam23n0 ) 0 ) ) ( and ( >= lam27n0 0 ) ( >= lam27n1 0 ) ( >= lam27n2 0 ) ( >= lam27n3 0 ) ( >= lam27n4 0 ) ( >= lam27n6 0 ) ( >= lam27n7 0 ) ( > ( + ( * 1 lam27n0 ) ( * 1 lam27n1 ) ( * 1 lam27n2 ) ( * 1 lam27n3 ) ( * ( - 1 ) lam27n5 ) ( * Nl3CT1 lam27n6 ) ( * Nl3CT2 lam27n7 ) ( - 1 ( - ( + ( + ( + ( + ( + RFN1_CT ( * RFN1_arg1 0 ) ) ( * RFN1_arg2 0 ) ) ( * RFN1_arg3 0 ) ) ( * RFN1_arg4 0 ) ) ( * RFN1_arg5 0 ) ) RFN1_CT ) ) ) 0 ) ( = ( + ( * 1 lam27n5 ) ( * Nl3arg11 lam27n6 ) ( * Nl3arg12 lam27n7 ) ( - ( - RFN1_arg1 ) ) ) 0 ) ( = ( + ( * ( - 1 ) lam27n0 ) ( * ( - 1 ) lam27n4 ) ( * Nl3arg21 lam27n6 ) ( * Nl3arg22 lam27n7 ) ( - ( - RFN1_arg2 ) ) ) 0 ) ( = ( + ( * Nl3arg31 lam27n6 ) ( * Nl3arg32 lam27n7 ) ( - ( - RFN1_arg3 ) ) ) 0 ) ( = ( + ( * Nl3arg41 lam27n6 ) ( * Nl3arg42 lam27n7 ) ( - ( - RFN1_arg4 ) ) ) 0 ) ( = ( + ( * Nl3arg51 lam27n6 ) ( * Nl3arg52 lam27n7 ) ( - ( - RFN1_arg5 ) ) ) 0 ) ( = ( - ( + 0 ( * RFN1_arg3 1 ) ) ) 0 ) ( = ( - ( + 0 ( * RFN1_arg4 1 ) ) ) 0 ) ( = ( - ( + 0 ( * RFN1_arg5 1 ) ) ) 0 ) ( = ( + ( * 1 lam27n0 ) ( * 1 lam27n1 ) ( * 1 lam27n2 ) ( * ( - 1 ) lam27n3 ) ) 0 ) ( = ( * ( - 1 ) lam27n1 ) 0 ) ( = ( * ( - 1 ) lam27n2 ) 0 ) ) ( and ( >= lam31n0 0 ) ( >= lam31n1 0 ) ( >= lam31n3 0 ) ( >= lam31n4 0 ) ( > ( + ( * 1 lam31n0 ) ( * ( - 1 ) lam31n2 ) ( * Nl3CT1 lam31n3 ) ( * Nl3CT2 lam31n4 ) ( - 1 ( - ( + ( + ( + ( + ( + RFN1_CT ( * RFN1_arg1 0 ) ) ( * RFN1_arg2 2 ) ) ( * RFN1_arg3 0 ) ) ( * RFN1_arg4 0 ) ) ( * RFN1_arg5 0 ) ) RFN1_CT ) ) ) 0 ) ( = ( + ( * 1 lam31n2 ) ( * Nl3arg11 lam31n3 ) ( * Nl3arg12 lam31n4 ) ( - ( - RFN1_arg1 ) ) ) 0 ) ( = ( + ( * ( - 1 ) lam31n0 ) ( * ( - 1 ) lam31n1 ) ( * Nl3arg21 lam31n3 ) ( * Nl3arg22 lam31n4 ) ( - ( - RFN1_arg2 ) ) ) 0 ) ( = ( + ( * Nl3arg31 lam31n3 ) ( * Nl3arg32 lam31n4 ) ( - ( - RFN1_arg3 ) ) ) 0 ) ( = ( + ( * Nl3arg41 lam31n3 ) ( * Nl3arg42 lam31n4 ) ( - ( - RFN1_arg4 ) ) ) 0 ) ( = ( + ( * Nl3arg51 lam31n3 ) ( * Nl3arg52 lam31n4 ) ( - ( - RFN1_arg5 ) ) ) 0 ) ( = ( - ( + 0 ( * RFN1_arg3 1 ) ) ) 0 ) ( = ( - ( + 0 ( * RFN1_arg4 1 ) ) ) 0 ) ( = ( - ( + 0 ( * RFN1_arg5 1 ) ) ) 0 ) ( = ( * 1 lam31n0 ) 0 ) ) ) ( or ( and ( and ( >= lam17n0 0 ) ( >= lam17n1 0 ) ( >= lam17n2 0 ) ( >= lam17n3 0 ) ( >= lam17n5 0 ) ( >= lam17n6 0 ) ( > ( + ( * 1 lam17n0 ) ( * 1 lam17n1 ) ( * 1 lam17n2 ) ( * Nl3CT1 lam17n5 ) ( * Nl3CT2 lam17n6 ) ( - 1 ( - RFN1_CT ) ) ) 0 ) ( = ( + ( * 1 lam17n4 ) ( * Nl3arg11 lam17n5 ) ( * Nl3arg12 lam17n6 ) ( - ( - RFN1_arg1 ) ) ) 0 ) ( = ( + ( * ( - 1 ) lam17n0 ) ( * ( - 1 ) lam17n3 ) ( * Nl3arg21 lam17n5 ) ( * Nl3arg22 lam17n6 ) ( - ( - RFN1_arg2 ) ) ) 0 ) ( = ( + ( * Nl3arg31 lam17n5 ) ( * Nl3arg32 lam17n6 ) ( - ( - RFN1_arg3 ) ) ) 0 ) ( = ( + ( * Nl3arg41 lam17n5 ) ( * Nl3arg42 lam17n6 ) ( - ( - RFN1_arg4 ) ) ) 0 ) ( = ( + ( * Nl3arg51 lam17n5 ) ( * Nl3arg52 lam17n6 ) ( - ( - RFN1_arg5 ) ) ) 0 ) ( = ( * ( - 1 ) lam17n1 ) 0 ) ( = ( + ( * 1 lam17n0 ) ( * 1 lam17n1 ) ( * ( - 1 ) lam17n2 ) ) 0 ) ) ( and ( >= lam18n0 0 ) ( >= lam18n1 0 ) ( >= lam18n2 0 ) ( >= lam18n3 0 ) ( >= lam18n5 0 ) ( >= lam18n6 0 ) ( > ( + ( * 1 lam18n0 ) ( * 1 lam18n1 ) ( * 1 lam18n2 ) ( * Nl3CT1 lam18n5 ) ( * Nl3CT2 lam18n6 ) ( - 1 ( + ( - ( + ( + ( + ( + ( + RFN1_CT ( * RFN1_arg1 1 ) ) ( * RFN1_arg2 0 ) ) ( * RFN1_arg3 0 ) ) ( * RFN1_arg4 0 ) ) ( * RFN1_arg5 0 ) ) RFN1_CT ) 1 ) ) ) 0 ) ( = ( + ( * 1 lam18n4 ) ( * Nl3arg11 lam18n5 ) ( * Nl3arg12 lam18n6 ) ( - ( - RFN1_arg1 ) ) ) 0 ) ( = ( + ( * ( - 1 ) lam18n0 ) ( * ( - 1 ) lam18n3 ) ( * Nl3arg21 lam18n5 ) ( * Nl3arg22 lam18n6 ) ( - ( - RFN1_arg2 ) ) ) 0 ) ( = ( + ( * Nl3arg31 lam18n5 ) ( * Nl3arg32 lam18n6 ) ( - ( - RFN1_arg3 ) ) ) 0 ) ( = ( + ( * Nl3arg41 lam18n5 ) ( * Nl3arg42 lam18n6 ) ( - ( - RFN1_arg4 ) ) ) 0 ) ( = ( + ( * Nl3arg51 lam18n5 ) ( * Nl3arg52 lam18n6 ) ( - ( - RFN1_arg5 ) ) ) 0 ) ( = ( + ( * ( - 1 ) lam18n1 ) ( - ( + 0 ( * RFN1_arg2 1 ) ) ) ) 0 ) ( = ( - ( + 0 ( * RFN1_arg3 1 ) ) ) 0 ) ( = ( - ( + 0 ( * RFN1_arg4 1 ) ) ) 0 ) ( = ( - ( + 0 ( * RFN1_arg5 1 ) ) ) 0 ) ( = ( + ( * 1 lam18n0 ) ( * 1 lam18n1 ) ( * ( - 1 ) lam18n2 ) ) 0 ) ) ) ( and ( and ( >= lam21n0 0 ) ( >= lam21n1 0 ) ( >= lam21n3 0 ) ( >= lam21n4 0 ) ( > ( + ( * 1 lam21n0 ) ( * Nl3CT1 lam21n3 ) ( * Nl3CT2 lam21n4 ) ( - 1 ( - RFN1_CT ) ) ) 0 ) ( = ( + ( * 1 lam21n2 ) ( * Nl3arg11 lam21n3 ) ( * Nl3arg12 lam21n4 ) ( - ( - RFN1_arg1 ) ) ) 0 ) ( = ( + ( * ( - 1 ) lam21n0 ) ( * ( - 1 ) lam21n1 ) ( * Nl3arg21 lam21n3 ) ( * Nl3arg22 lam21n4 ) ( - ( - RFN1_arg2 ) ) ) 0 ) ( = ( + ( * Nl3arg31 lam21n3 ) ( * Nl3arg32 lam21n4 ) ( - ( - RFN1_arg3 ) ) ) 0 ) ( = ( + ( * Nl3arg41 lam21n3 ) ( * Nl3arg42 lam21n4 ) ( - ( - RFN1_arg4 ) ) ) 0 ) ( = ( + ( * Nl3arg51 lam21n3 ) ( * Nl3arg52 lam21n4 ) ( - ( - RFN1_arg5 ) ) ) 0 ) ( = ( * 1 lam21n0 ) 0 ) ) ( and ( >= lam22n0 0 ) ( >= lam22n1 0 ) ( >= lam22n3 0 ) ( >= lam22n4 0 ) ( > ( + ( * 1 lam22n0 ) ( * Nl3CT1 lam22n3 ) ( * Nl3CT2 lam22n4 ) ( - 1 ( + ( - ( + ( + ( + ( + ( + RFN1_CT ( * RFN1_arg1 1 ) ) ( * RFN1_arg2 1 ) ) ( * RFN1_arg3 0 ) ) ( * RFN1_arg4 0 ) ) ( * RFN1_arg5 0 ) ) RFN1_CT ) 1 ) ) ) 0 ) ( = ( + ( * 1 lam22n2 ) ( * Nl3arg11 lam22n3 ) ( * Nl3arg12 lam22n4 ) ( - ( - RFN1_arg1 ) ) ) 0 ) ( = ( + ( * ( - 1 ) lam22n0 ) ( * ( - 1 ) lam22n1 ) ( * Nl3arg21 lam22n3 ) ( * Nl3arg22 lam22n4 ) ( - ( - RFN1_arg2 ) ) ) 0 ) ( = ( + ( * Nl3arg31 lam22n3 ) ( * Nl3arg32 lam22n4 ) ( - ( - RFN1_arg3 ) ) ) 0 ) ( = ( + ( * Nl3arg41 lam22n3 ) ( * Nl3arg42 lam22n4 ) ( - ( - RFN1_arg4 ) ) ) 0 ) ( = ( + ( * Nl3arg51 lam22n3 ) ( * Nl3arg52 lam22n4 ) ( - ( - RFN1_arg5 ) ) ) 0 ) ( = ( - ( + 0 ( * RFN1_arg3 1 ) ) ) 0 ) ( = ( - ( + 0 ( * RFN1_arg4 1 ) ) ) 0 ) ( = ( - ( + 0 ( * RFN1_arg5 1 ) ) ) 0 ) ( = ( * 1 lam22n0 ) 0 ) ) ) ( and ( and ( >= lam25n0 0 ) ( >= lam25n1 0 ) ( >= lam25n2 0 ) ( >= lam25n3 0 ) ( >= lam25n4 0 ) ( >= lam25n6 0 ) ( >= lam25n7 0 ) ( > ( + ( * 1 lam25n0 ) ( * 1 lam25n1 ) ( * 1 lam25n2 ) ( * 1 lam25n3 ) ( * ( - 1 ) lam25n5 ) ( * Nl3CT1 lam25n6 ) ( * Nl3CT2 lam25n7 ) ( - 1 ( - RFN1_CT ) ) ) 0 ) ( = ( + ( * 1 lam25n5 ) ( * Nl3arg11 lam25n6 ) ( * Nl3arg12 lam25n7 ) ( - ( - RFN1_arg1 ) ) ) 0 ) ( = ( + ( * ( - 1 ) lam25n0 ) ( * ( - 1 ) lam25n4 ) ( * Nl3arg21 lam25n6 ) ( * Nl3arg22 lam25n7 ) ( - ( - RFN1_arg2 ) ) ) 0 ) ( = ( + ( * Nl3arg31 lam25n6 ) ( * Nl3arg32 lam25n7 ) ( - ( - RFN1_arg3 ) ) ) 0 ) ( = ( + ( * Nl3arg41 lam25n6 ) ( * Nl3arg42 lam25n7 ) ( - ( - RFN1_arg4 ) ) ) 0 ) ( = ( + ( * Nl3arg51 lam25n6 ) ( * Nl3arg52 lam25n7 ) ( - ( - RFN1_arg5 ) ) ) 0 ) ( = ( + ( * 1 lam25n0 ) ( * 1 lam25n1 ) ( * 1 lam25n2 ) ( * ( - 1 ) lam25n3 ) ) 0 ) ( = ( * ( - 1 ) lam25n1 ) 0 ) ( = ( * ( - 1 ) lam25n2 ) 0 ) ) ( and ( >= lam26n0 0 ) ( >= lam26n1 0 ) ( >= lam26n2 0 ) ( >= lam26n3 0 ) ( >= lam26n4 0 ) ( >= lam26n6 0 ) ( >= lam26n7 0 ) ( > ( + ( * 1 lam26n0 ) ( * 1 lam26n1 ) ( * 1 lam26n2 ) ( * 1 lam26n3 ) ( * ( - 1 ) lam26n5 ) ( * Nl3CT1 lam26n6 ) ( * Nl3CT2 lam26n7 ) ( - 1 ( + ( - ( + ( + ( + ( + ( + RFN1_CT ( * RFN1_arg1 0 ) ) ( * RFN1_arg2 0 ) ) ( * RFN1_arg3 0 ) ) ( * RFN1_arg4 0 ) ) ( * RFN1_arg5 0 ) ) RFN1_CT ) 1 ) ) ) 0 ) ( = ( + ( * 1 lam26n5 ) ( * Nl3arg11 lam26n6 ) ( * Nl3arg12 lam26n7 ) ( - ( - RFN1_arg1 ) ) ) 0 ) ( = ( + ( * ( - 1 ) lam26n0 ) ( * ( - 1 ) lam26n4 ) ( * Nl3arg21 lam26n6 ) ( * Nl3arg22 lam26n7 ) ( - ( - RFN1_arg2 ) ) ) 0 ) ( = ( + ( * Nl3arg31 lam26n6 ) ( * Nl3arg32 lam26n7 ) ( - ( - RFN1_arg3 ) ) ) 0 ) ( = ( + ( * Nl3arg41 lam26n6 ) ( * Nl3arg42 lam26n7 ) ( - ( - RFN1_arg4 ) ) ) 0 ) ( = ( + ( * Nl3arg51 lam26n6 ) ( * Nl3arg52 lam26n7 ) ( - ( - RFN1_arg5 ) ) ) 0 ) ( = ( - ( + 0 ( * RFN1_arg3 1 ) ) ) 0 ) ( = ( - ( + 0 ( * RFN1_arg4 1 ) ) ) 0 ) ( = ( - ( + 0 ( * RFN1_arg5 1 ) ) ) 0 ) ( = ( + ( * 1 lam26n0 ) ( * 1 lam26n1 ) ( * 1 lam26n2 ) ( * ( - 1 ) lam26n3 ) ) 0 ) ( = ( * ( - 1 ) lam26n1 ) 0 ) ( = ( * ( - 1 ) lam26n2 ) 0 ) ) ) ( and ( and ( >= lam29n0 0 ) ( >= lam29n1 0 ) ( >= lam29n3 0 ) ( >= lam29n4 0 ) ( > ( + ( * 1 lam29n0 ) ( * ( - 1 ) lam29n2 ) ( * Nl3CT1 lam29n3 ) ( * Nl3CT2 lam29n4 ) ( - 1 ( - RFN1_CT ) ) ) 0 ) ( = ( + ( * 1 lam29n2 ) ( * Nl3arg11 lam29n3 ) ( * Nl3arg12 lam29n4 ) ( - ( - RFN1_arg1 ) ) ) 0 ) ( = ( + ( * ( - 1 ) lam29n0 ) ( * ( - 1 ) lam29n1 ) ( * Nl3arg21 lam29n3 ) ( * Nl3arg22 lam29n4 ) ( - ( - RFN1_arg2 ) ) ) 0 ) ( = ( + ( * Nl3arg31 lam29n3 ) ( * Nl3arg32 lam29n4 ) ( - ( - RFN1_arg3 ) ) ) 0 ) ( = ( + ( * Nl3arg41 lam29n3 ) ( * Nl3arg42 lam29n4 ) ( - ( - RFN1_arg4 ) ) ) 0 ) ( = ( + ( * Nl3arg51 lam29n3 ) ( * Nl3arg52 lam29n4 ) ( - ( - RFN1_arg5 ) ) ) 0 ) ( = ( * 1 lam29n0 ) 0 ) ) ( and ( >= lam30n0 0 ) ( >= lam30n1 0 ) ( >= lam30n3 0 ) ( >= lam30n4 0 ) ( > ( + ( * 1 lam30n0 ) ( * ( - 1 ) lam30n2 ) ( * Nl3CT1 lam30n3 ) ( * Nl3CT2 lam30n4 ) ( - 1 ( + ( - ( + ( + ( + ( + ( + RFN1_CT ( * RFN1_arg1 0 ) ) ( * RFN1_arg2 2 ) ) ( * RFN1_arg3 0 ) ) ( * RFN1_arg4 0 ) ) ( * RFN1_arg5 0 ) ) RFN1_CT ) 1 ) ) ) 0 ) ( = ( + ( * 1 lam30n2 ) ( * Nl3arg11 lam30n3 ) ( * Nl3arg12 lam30n4 ) ( - ( - RFN1_arg1 ) ) ) 0 ) ( = ( + ( * ( - 1 ) lam30n0 ) ( * ( - 1 ) lam30n1 ) ( * Nl3arg21 lam30n3 ) ( * Nl3arg22 lam30n4 ) ( - ( - RFN1_arg2 ) ) ) 0 ) ( = ( + ( * Nl3arg31 lam30n3 ) ( * Nl3arg32 lam30n4 ) ( - ( - RFN1_arg3 ) ) ) 0 ) ( = ( + ( * Nl3arg41 lam30n3 ) ( * Nl3arg42 lam30n4 ) ( - ( - RFN1_arg4 ) ) ) 0 ) ( = ( + ( * Nl3arg51 lam30n3 ) ( * Nl3arg52 lam30n4 ) ( - ( - RFN1_arg5 ) ) ) 0 ) ( = ( - ( + 0 ( * RFN1_arg3 1 ) ) ) 0 ) ( = ( - ( + 0 ( * RFN1_arg4 1 ) ) ) 0 ) ( = ( - ( + 0 ( * RFN1_arg5 1 ) ) ) 0 ) ( = ( * 1 lam30n0 ) 0 ) ) ) ) ) ( or ( and ( >= lam16n0 0 ) ( >= lam16n1 0 ) ( >= lam16n2 0 ) ( >= lam16n3 0 ) ( >= lam16n5 0 ) ( >= lam16n6 0 ) ( > ( + ( * 1 lam16n0 ) ( * 1 lam16n1 ) ( * 1 lam16n2 ) ( * Nl3CT1 lam16n5 ) ( * Nl3CT2 lam16n6 ) ( - 1 ) ) 0 ) ( = ( + ( * 1 lam16n4 ) ( * Nl3arg11 lam16n5 ) ( * Nl3arg12 lam16n6 ) ) 0 ) ( = ( + ( * ( - 1 ) lam16n0 ) ( * ( - 1 ) lam16n3 ) ( * Nl3arg21 lam16n5 ) ( * Nl3arg22 lam16n6 ) ) 0 ) ( = ( + ( * Nl3arg31 lam16n5 ) ( * Nl3arg32 lam16n6 ) ) 0 ) ( = ( + ( * Nl3arg41 lam16n5 ) ( * Nl3arg42 lam16n6 ) ) 0 ) ( = ( + ( * Nl3arg51 lam16n5 ) ( * Nl3arg52 lam16n6 ) ) 0 ) ( = ( * ( - 1 ) lam16n1 ) 0 ) ( = ( + ( * 1 lam16n0 ) ( * 1 lam16n1 ) ( * ( - 1 ) lam16n2 ) ) 0 ) ) ( and ( >= lam20n0 0 ) ( >= lam20n1 0 ) ( >= lam20n3 0 ) ( >= lam20n4 0 ) ( > ( + ( * 1 lam20n0 ) ( * Nl3CT1 lam20n3 ) ( * Nl3CT2 lam20n4 ) ( - 1 ) ) 0 ) ( = ( + ( * 1 lam20n2 ) ( * Nl3arg11 lam20n3 ) ( * Nl3arg12 lam20n4 ) ) 0 ) ( = ( + ( * ( - 1 ) lam20n0 ) ( * ( - 1 ) lam20n1 ) ( * Nl3arg21 lam20n3 ) ( * Nl3arg22 lam20n4 ) ) 0 ) ( = ( + ( * Nl3arg31 lam20n3 ) ( * Nl3arg32 lam20n4 ) ) 0 ) ( = ( + ( * Nl3arg41 lam20n3 ) ( * Nl3arg42 lam20n4 ) ) 0 ) ( = ( + ( * Nl3arg51 lam20n3 ) ( * Nl3arg52 lam20n4 ) ) 0 ) ( = ( * 1 lam20n0 ) 0 ) ) ( and ( >= lam24n0 0 ) ( >= lam24n1 0 ) ( >= lam24n2 0 ) ( >= lam24n3 0 ) ( >= lam24n4 0 ) ( >= lam24n6 0 ) ( >= lam24n7 0 ) ( > ( + ( * 1 lam24n0 ) ( * 1 lam24n1 ) ( * 1 lam24n2 ) ( * 1 lam24n3 ) ( * ( - 1 ) lam24n5 ) ( * Nl3CT1 lam24n6 ) ( * Nl3CT2 lam24n7 ) ( - 1 ) ) 0 ) ( = ( + ( * 1 lam24n5 ) ( * Nl3arg11 lam24n6 ) ( * Nl3arg12 lam24n7 ) ) 0 ) ( = ( + ( * ( - 1 ) lam24n0 ) ( * ( - 1 ) lam24n4 ) ( * Nl3arg21 lam24n6 ) ( * Nl3arg22 lam24n7 ) ) 0 ) ( = ( + ( * Nl3arg31 lam24n6 ) ( * Nl3arg32 lam24n7 ) ) 0 ) ( = ( + ( * Nl3arg41 lam24n6 ) ( * Nl3arg42 lam24n7 ) ) 0 ) ( = ( + ( * Nl3arg51 lam24n6 ) ( * Nl3arg52 lam24n7 ) ) 0 ) ( = ( + ( * 1 lam24n0 ) ( * 1 lam24n1 ) ( * 1 lam24n2 ) ( * ( - 1 ) lam24n3 ) ) 0 ) ( = ( * ( - 1 ) lam24n1 ) 0 ) ( = ( * ( - 1 ) lam24n2 ) 0 ) ) ( and ( >= lam28n0 0 ) ( >= lam28n1 0 ) ( >= lam28n3 0 ) ( >= lam28n4 0 ) ( > ( + ( * 1 lam28n0 ) ( * ( - 1 ) lam28n2 ) ( * Nl3CT1 lam28n3 ) ( * Nl3CT2 lam28n4 ) ( - 1 ) ) 0 ) ( = ( + ( * 1 lam28n2 ) ( * Nl3arg11 lam28n3 ) ( * Nl3arg12 lam28n4 ) ) 0 ) ( = ( + ( * ( - 1 ) lam28n0 ) ( * ( - 1 ) lam28n1 ) ( * Nl3arg21 lam28n3 ) ( * Nl3arg22 lam28n4 ) ) 0 ) ( = ( + ( * Nl3arg31 lam28n3 ) ( * Nl3arg32 lam28n4 ) ) 0 ) ( = ( + ( * Nl3arg41 lam28n3 ) ( * Nl3arg42 lam28n4 ) ) 0 ) ( = ( + ( * Nl3arg51 lam28n3 ) ( * Nl3arg52 lam28n4 ) ) 0 ) ( = ( * 1 lam28n0 ) 0 ) ) ) ))
(check-sat)
(exit)
